
;this file is automatically generated: Thu Jan 02 16:54:47 GMT 2020

;declarations generated

(declare-fun obj_0b147530_021b_476f_83cf_7b97b09798e3 ( Int) Int)
(declare-fun oclExcludes ( Int Int) Bool)
(declare-fun Cardinality ( Int) Int)
(declare-fun class52_Class52BoolAttr0 ( Int) Bool)
(declare-fun type_7441ec14_ea9d_4f9f_807d_107b213bcaa6_Class52 ( Int) Bool)
(declare-fun oclSelect ( Int Bool) Int)
(declare-fun Enum0 ( Int) Int)
(declare-fun Enum1 ( Int) Int)
(declare-fun Enum2 ( Int) Int)
(declare-fun container_ ( Int) Int)
(declare-fun oclIncludes ( Int Int) Bool)
(declare-fun ObjAt ( Int Int) Int)

;formula(s) generated
(assert (! (forall ((v Int)) (=> ( type_7441ec14_ea9d_4f9f_807d_107b213bcaa6_Class52 v )  (not ( class52_Class52BoolAttr0 ( obj_0b147530_021b_476f_83cf_7b97b09798e3 v )  )  ))):named l0))
(assert (exists ((o Int)) ( type_7441ec14_ea9d_4f9f_807d_107b213bcaa6_Class52 ( obj_0b147530_021b_476f_83cf_7b97b09798e3 o )  ) ))

 ;end of formula 